c FILE /home/rafael/Documents/HappySet/MIHS/inputs/happygen/output/graph_scale_free_k4_p0.3_v100_20241127_083827.txt
c SOURCE This is a scale-free graph formed for the happy graph colouring problem.
c DESCRIPTION It was generated using the problem generator of Rhyd Lewis
c
c GRAPH STATS
c Seed                             = 964517926
c Number of Nodes                  = 100
c Number of colours k              = 4
c Number of pre-assignments        = 30
c Number of links per new node     = 5
c Density                          = 0.0979798
c 
c The degrees of nodes 1 to 100, respectively, are as follows 
c [35, 35, 32, 30, 29, 29, 24, 24, 21, 21, 20, 18, 15, 13, 13, 13, 13, 13, 12, 12, 12, 12, 12, 11, 11, 11, 
c  10, 10, 10, 10, 10, 9, 9, 9, 9, 9, 8, 8, 8, 8, 8, 8, 8, 7, 7, 7, 7, 7, 7, 7, 7, 
c  7, 7, 7, 7, 6, 6, 6, 6, 6, 6, 6, 6, 6, 6, 6, 6, 6, 6, 6, 6, 6, 6, 6, 5, 5, 
c  5, 5, 5, 5, 5, 5, 5, 5, 5, 5, 5, 5, 5, 5, 5, 5, 5, 5, 5, 5, 5, 5, 5, 5] 
c  
p edge 100 485 4
e 1 2
e 1 3
e 1 4
e 1 5
e 1 6
e 1 7
e 1 9
e 1 10
e 1 14
e 1 16
e 1 19
e 1 20
e 1 21
e 1 24
e 1 28
e 1 30
e 1 35
e 1 40
e 1 44
e 1 50
e 1 51
e 1 58
e 1 60
e 1 65
e 1 66
e 1 67
e 1 69
e 1 74
e 1 75
e 1 79
e 1 80
e 1 81
e 1 84
e 1 88
e 1 91
e 2 3
e 2 5
e 2 6
e 2 7
e 2 8
e 2 9
e 2 11
e 2 12
e 2 13
e 2 14
e 2 15
e 2 16
e 2 19
e 2 21
e 2 24
e 2 26
e 2 30
e 2 31
e 2 33
e 2 48
e 2 50
e 2 57
e 2 59
e 2 64
e 2 65
e 2 68
e 2 69
e 2 75
e 2 77
e 2 84
e 2 87
e 2 91
e 2 93
e 2 97
e 3 4
e 3 5
e 3 6
e 3 7
e 3 8
e 3 9
e 3 10
e 3 11
e 3 12
e 3 14
e 3 19
e 3 20
e 3 23
e 3 24
e 3 28
e 3 30
e 3 32
e 3 37
e 3 43
e 3 45
e 3 52
e 3 53
e 3 56
e 3 57
e 3 67
e 3 73
e 3 82
e 3 94
e 3 96
e 3 97
e 4 5
e 4 6
e 4 7
e 4 8
e 4 9
e 4 10
e 4 13
e 4 15
e 4 18
e 4 19
e 4 20
e 4 25
e 4 29
e 4 32
e 4 34
e 4 35
e 4 36
e 4 38
e 4 40
e 4 43
e 4 46
e 4 47
e 4 59
e 4 63
e 4 72
e 4 75
e 4 87
e 4 89
e 5 7
e 5 9
e 5 10
e 5 11
e 5 16
e 5 19
e 5 24
e 5 27
e 5 32
e 5 33
e 5 34
e 5 36
e 5 37
e 5 45
e 5 49
e 5 56
e 5 57
e 5 61
e 5 67
e 5 71
e 5 74
e 5 80
e 5 84
e 5 91
e 5 94
e 6 7
e 6 10
e 6 14
e 6 22
e 6 26
e 6 28
e 6 29
e 6 30
e 6 38
e 6 39
e 6 45
e 6 49
e 6 51
e 6 53
e 6 54
e 6 55
e 6 57
e 6 58
e 6 59
e 6 75
e 6 76
e 6 79
e 6 80
e 6 83
e 6 89
e 7 8
e 7 9
e 7 13
e 7 18
e 7 22
e 7 23
e 7 25
e 7 31
e 7 34
e 7 35
e 7 40
e 7 44
e 7 52
e 7 66
e 7 70
e 7 71
e 7 85
e 7 93
e 8 12
e 8 14
e 8 17
e 8 29
e 8 34
e 8 35
e 8 37
e 8 38
e 8 39
e 8 42
e 8 50
e 8 52
e 8 53
e 8 56
e 8 62
e 8 77
e 8 82
e 8 83
e 8 96
e 8 97
e 9 11
e 9 13
e 9 15
e 9 16
e 9 17
e 9 21
e 9 35
e 9 47
e 9 51
e 9 70
e 9 85
e 9 86
e 9 87
e 9 90
e 9 98
e 10 12
e 10 13
e 10 15
e 10 24
e 10 25
e 10 27
e 10 32
e 10 41
e 10 48
e 10 54
e 10 58
e 10 74
e 10 78
e 10 80
e 10 89
e 10 99
e 11 12
e 11 17
e 11 19
e 11 21
e 11 28
e 11 36
e 11 37
e 11 39
e 11 45
e 11 55
e 11 56
e 11 61
e 11 66
e 11 75
e 11 76
e 11 91
e 12 27
e 12 41
e 12 42
e 12 45
e 12 64
e 12 69
e 12 71
e 12 77
e 12 78
e 12 81
e 12 82
e 12 85
e 12 93
e 13 15
e 13 20
e 13 25
e 13 30
e 13 44
e 13 46
e 13 48
e 13 56
e 13 71
e 13 93
e 14 19
e 14 20
e 14 21
e 14 29
e 14 37
e 14 61
e 14 72
e 14 95
e 15 18
e 15 27
e 15 32
e 15 49
e 15 54
e 15 59
e 15 62
e 15 72
e 16 27
e 16 34
e 16 42
e 16 59
e 16 62
e 16 66
e 16 77
e 16 91
e 16 95
e 17 23
e 17 32
e 17 33
e 17 37
e 17 48
e 17 52
e 17 65
e 17 73
e 17 90
e 17 92
e 18 21
e 18 31
e 18 33
e 18 47
e 18 63
e 18 64
e 18 84
e 18 87
e 18 94
e 18 100
e 19 22
e 19 27
e 19 31
e 19 44
e 19 83
e 20 25
e 20 29
e 20 44
e 20 49
e 20 55
e 20 68
e 20 86
e 21 26
e 21 40
e 21 42
e 21 46
e 21 51
e 21 76
e 22 29
e 22 33
e 22 40
e 22 78
e 22 79
e 22 82
e 22 83
e 22 95
e 22 100
e 23 39
e 23 46
e 23 54
e 23 61
e 23 62
e 23 63
e 23 73
e 23 79
e 23 96
e 24 39
e 24 54
e 24 58
e 24 60
e 24 66
e 24 74
e 25 28
e 25 33
e 25 60
e 25 65
e 25 81
e 25 100
e 26 28
e 26 42
e 26 47
e 26 56
e 26 62
e 26 76
e 26 93
e 26 98
e 27 38
e 27 41
e 27 57
e 27 98
e 28 33
e 28 39
e 28 50
e 28 94
e 29 43
e 29 65
e 29 70
e 29 73
e 30 31
e 30 48
e 30 58
e 30 85
e 30 92
e 31 53
e 31 63
e 31 64
e 31 74
e 31 95
e 32 36
e 32 60
e 32 61
e 33 46
e 33 63
e 34 76
e 34 85
e 34 99
e 34 100
e 35 68
e 35 77
e 35 84
e 35 95
e 36 44
e 36 64
e 36 69
e 36 80
e 36 88
e 37 38
e 37 70
e 38 46
e 38 68
e 38 78
e 39 43
e 39 82
e 40 43
e 40 67
e 40 79
e 41 46
e 41 50
e 41 58
e 41 67
e 41 97
e 42 52
e 42 92
e 42 99
e 43 55
e 43 73
e 43 90
e 44 78
e 45 47
e 45 60
e 47 86
e 47 94
e 48 71
e 48 81
e 49 51
e 49 62
e 49 83
e 50 70
e 50 81
e 51 88
e 51 99
e 52 87
e 52 89
e 53 63
e 53 72
e 53 96
e 54 88
e 54 97
e 55 70
e 55 98
e 55 100
e 57 69
e 59 72
e 60 89
e 61 68
e 64 86
e 65 98
e 66 86
e 67 90
e 68 92
e 69 92
e 71 90
e 72 96
e 73 99
e 74 88
n 9 3
n 19 2
n 20 1
n 22 2
n 26 4
n 27 2
n 30 1
n 36 1
n 39 4
n 50 3
n 61 1
n 62 4
n 63 1
n 66 1
n 67 2
n 68 1
n 69 1
n 73 1
n 74 1
n 76 4
n 79 2
n 80 1
n 83 2
n 84 4
n 87 3
n 93 4
n 96 4
n 97 1
n 99 1
n 100 2
